Set parameter Username
Set parameter Threads to value 1
Academic license - for non-commercial use only - expires 2022-07-11
Set parameter TimeLimit to value 300
Gurobi Optimizer version 9.5.1 build v9.5.1rc2 (linux64)
Thread count: 2 physical cores, 4 logical processors, using up to 1 threads
Optimize a model with 880 rows, 820 columns and 3258 nonzeros
Model fingerprint: 0xf57634bb
Variable types: 20 continuous, 800 integer (800 binary)
Coefficient statistics:
  Matrix range     [1e+00, 4e+02]
  Objective range  [4e+01, 4e+02]
  Bounds range     [1e+00, 1e+00]
  RHS range        [1e+00, 1e+03]
Presolve removed 606 rows and 529 columns
Presolve time: 0.18s
Presolved: 274 rows, 291 columns, 1577 nonzeros
Variable types: 16 continuous, 275 integer (275 binary)

Root relaxation: objective 9.630000e+02, 369 iterations, 0.01 seconds (0.01 work units)

    Nodes    |    Current Node    |     Objective Bounds      |     Work
 Expl Unexpl |  Obj  Depth IntInf | Incumbent    BestBd   Gap | It/Node Time

     0     0  963.00000    0   43          -  963.00000      -     -    0s
H    0     0                    3083.0000000  963.00000  68.8%     -    0s
H    0     0                    2632.0000000  963.00000  63.4%     -    0s
H    0     0                    2602.0000000  963.00000  63.0%     -    0s
     0     0 1146.33607    0   53 2602.00000 1146.33607  55.9%     -    0s
     0     0 1166.17053    0   53 2602.00000 1166.17053  55.2%     -    0s
     0     0 1166.22043    0   54 2602.00000 1166.22043  55.2%     -    0s
     0     0 1302.17314    0   51 2602.00000 1302.17314  50.0%     -    0s
     0     0 1311.50744    0   57 2602.00000 1311.50744  49.6%     -    0s
     0     0 1316.08633    0   56 2602.00000 1316.08633  49.4%     -    0s
     0     0 1318.63639    0   58 2602.00000 1318.63639  49.3%     -    0s
     0     0 1318.66272    0   58 2602.00000 1318.66272  49.3%     -    0s
     0     0 1351.44240    0   55 2602.00000 1351.44240  48.1%     -    0s
H    0     0                    2191.0000000 1351.44240  38.3%     -    0s
     0     0 1357.34168    0   58 2191.00000 1357.34168  38.0%     -    0s
     0     0 1358.42536    0   56 2191.00000 1358.42536  38.0%     -    0s
     0     0 1358.84314    0   59 2191.00000 1358.84314  38.0%     -    0s
     0     0 1367.68970    0   56 2191.00000 1367.68970  37.6%     -    0s
H    0     0                    2179.0000000 1367.68970  37.2%     -    0s
     0     0 1369.28569    0   57 2179.00000 1369.28569  37.2%     -    0s
     0     0 1370.53822    0   59 2179.00000 1370.53822  37.1%     -    0s
     0     0 1370.63914    0   57 2179.00000 1370.63914  37.1%     -    0s
     0     0 1376.83089    0   57 2179.00000 1376.83089  36.8%     -    0s
H    0     0                    2167.0000000 1376.83089  36.5%     -    0s
     0     0 1378.10776    0   57 2167.00000 1378.10776  36.4%     -    0s
     0     0 1378.28795    0   57 2167.00000 1378.28795  36.4%     -    0s
     0     0 1378.44470    0   57 2167.00000 1378.44470  36.4%     -    0s
     0     0 1378.62387    0   57 2167.00000 1378.62387  36.4%     -    0s
     0     0 1381.19956    0   56 2167.00000 1381.19956  36.3%     -    0s
H    0     0                    2110.0000000 1381.19956  34.5%     -    0s
     0     0 1389.27858    0   61 2110.00000 1389.27858  34.2%     -    0s
     0     0 1391.67109    0   61 2110.00000 1391.67109  34.0%     -    0s
     0     0 1393.36559    0   61 2110.00000 1393.36559  34.0%     -    0s
     0     0 1393.62597    0   61 2110.00000 1393.62597  34.0%     -    0s
     0     0 1394.37533    0   61 2110.00000 1394.37533  33.9%     -    0s
     0     0 1394.38797    0   61 2110.00000 1394.38797  33.9%     -    0s
     0     0 1394.78470    0   61 2110.00000 1394.78470  33.9%     -    0s
     0     0 1394.95440    0   61 2110.00000 1394.95440  33.9%     -    0s
     0     0 1395.07850    0   61 2110.00000 1395.07850  33.9%     -    0s
     0     0 1395.62617    0   61 2110.00000 1395.62617  33.9%     -    0s
     0     0 1396.48769    0   61 2110.00000 1396.48769  33.8%     -    0s
     0     0 1398.12595    0   60 2110.00000 1398.12595  33.7%     -    0s
     0     0 1398.23500    0   60 2110.00000 1398.23500  33.7%     -    0s
     0     0 1398.57130    0   61 2110.00000 1398.57130  33.7%     -    0s
     0     0 1398.99830    0   60 2110.00000 1398.99830  33.7%     -    0s
     0     0 1399.69070    0   60 2110.00000 1399.69070  33.7%     -    0s
     0     0 1399.69295    0   60 2110.00000 1399.69295  33.7%     -    0s
     0     0 1400.25843    0   60 2110.00000 1400.25843  33.6%     -    0s
H    0     0                    2074.0000000 1400.25843  32.5%     -    0s
     0     0 1400.34807    0   60 2074.00000 1400.34807  32.5%     -    0s
     0     0 1400.58335    0   61 2074.00000 1400.58335  32.5%     -    0s
     0     0 1400.60674    0   61 2074.00000 1400.60674  32.5%     -    0s
     0     0 1400.60674    0   61 2074.00000 1400.60674  32.5%     -    0s
H    0     0                    2048.0000000 1415.59665  30.9%     -    0s
     0     2 1415.59665    0   61 2048.00000 1415.59665  30.9%     -    0s
H  163    54                    1902.0000000 1532.08026  19.4%  18.2    0s
*  415    74              16    1880.0000000 1745.94195  7.13%  16.7    0s

Cutting planes:
  Gomory: 3
  Cover: 37
  Clique: 31
  MIR: 74
  GUB cover: 13
  Zero half: 3
  Relax-and-lift: 37

Explored 589 nodes (10091 simplex iterations) in 0.77 seconds (0.41 work units)
Thread count was 1 (of 4 available processors)

Solution count 10: 1880 1902 2048 ... 2632

Optimal solution found (tolerance 1.00e-04)
Best objective 1.880000000000e+03, best bound 1.880000000000e+03, gap 0.0000%
